p cnf 425 1181
-68 17 0
-68 57 0
68 -17 -57 0
-69 18 0
-69 57 0
69 -18 -57 0
-70 34 -69 0
-70 -34 -68 0
70 34 69 0
70 -34 68 0
-71 34 -19 0
-71 -34 -16 0
71 34 19 0
71 -34 16 0
-72 -57 0
-72 71 0
72 57 -71 0
-73 70 0
-73 -72 0
73 -70 72 0
-74 17 0
-74 56 0
74 -17 -56 0
-75 18 0
-75 56 0
75 -18 -56 0
-76 32 -75 0
-76 -32 -74 0
76 32 75 0
76 -32 74 0
-77 32 -19 0
-77 -32 -16 0
77 32 19 0
77 -32 16 0
-78 -56 0
-78 77 0
78 56 -77 0
-79 76 0
-79 -78 0
79 -76 78 0
-80 30 -18 0
-80 -30 -17 0
80 30 18 0
80 -30 17 0
-81 28 -19 0
-81 -28 -16 0
81 28 19 0
81 -28 16 0
-82 45 -18 0
-82 -45 -17 0
82 45 18 0
82 -45 17 0
-83 17 0
-83 53 0
83 -17 -53 0
-84 18 0
-84 53 0
84 -18 -53 0
-85 6 -84 0
-85 -6 -83 0
85 6 84 0
85 -6 83 0
-86 6 -19 0
-86 -6 -16 0
86 6 19 0
86 -6 16 0
-87 -53 0
-87 86 0
87 53 -86 0
-88 85 0
-88 -87 0
88 -85 87 0
-89 -39 -13 0
-89 39 -12 0
89 -39 13 0
89 39 12 0
-90 89 51 0
-90 -89 -51 0
90 89 -51 0
90 -89 51 0
-91 -39 -11 0
-91 39 -10 0
91 -39 11 0
91 39 10 0
-92 91 55 0
-92 -91 -55 0
92 91 -55 0
92 -91 55 0
-93 -39 -9 0
-93 39 -8 0
93 -39 9 0
93 39 8 0
-94 93 54 0
-94 -93 -54 0
94 93 -54 0
94 -93 54 0
-95 -39 -7 0
-95 39 -6 0
95 -39 7 0
95 39 6 0
-96 95 53 0
-96 -95 -53 0
96 95 -53 0
96 -95 53 0
-97 -90 0
-97 -92 0
97 90 92 0
-98 -94 0
-98 97 0
98 94 -97 0
-99 -39 -27 0
-99 39 -26 0
99 -39 27 0
99 39 26 0
-100 99 47 0
-100 -99 -47 0
100 99 -47 0
100 -99 47 0
-101 -39 -25 0
-101 39 -24 0
101 -39 25 0
101 39 24 0
-102 101 50 0
-102 -101 -50 0
102 101 -50 0
102 -101 50 0
-103 -39 -23 0
-103 39 -22 0
103 -39 23 0
103 39 22 0
-104 103 49 0
-104 -103 -49 0
104 103 -49 0
104 -103 49 0
-105 -39 -21 0
-105 39 -20 0
105 -39 21 0
105 39 20 0
-106 105 48 0
-106 -105 -48 0
106 105 -48 0
106 -105 48 0
-107 -39 -15 0
-107 39 -14 0
107 -39 15 0
107 39 14 0
-108 107 52 0
-108 -107 -52 0
108 107 -52 0
108 -107 52 0
-109 -100 0
-109 -102 0
109 100 102 0
-110 -104 0
-110 109 0
110 104 -109 0
-111 -106 0
-111 110 0
111 106 -110 0
-112 -108 0
-112 111 0
112 108 -111 0
-113 -38 -31 0
-113 38 -30 0
113 -38 31 0
113 38 30 0
-114 -38 -35 0
-114 38 -34 0
114 -38 35 0
114 38 34 0
-115 -114 -57 0
-115 114 57 0
115 -114 57 0
115 114 -57 0
-116 -38 -33 0
-116 38 -32 0
116 -38 33 0
116 38 32 0
-117 -116 -56 0
-117 116 56 0
117 -116 56 0
117 116 -56 0
-118 -38 -29 0
-118 38 -28 0
118 -38 29 0
118 38 28 0
-119 38 0
-119 40 0
119 -38 -40 0
-120 38 0
-120 -119 0
120 -38 119 0
-121 -120 -59 0
-121 120 59 0
121 -120 59 0
121 120 -59 0
-122 -38 -46 0
-122 38 -45 0
122 -38 46 0
122 38 45 0
-123 -38 -42 0
-123 38 -41 0
123 -38 42 0
123 38 41 0
-124 -123 -60 0
-124 123 60 0
124 -123 60 0
124 123 -60 0
-125 -38 -37 0
-125 38 -36 0
125 -38 37 0
125 38 36 0
-126 -125 -58 0
-126 125 58 0
126 -125 58 0
126 125 -58 0
-127 -38 -44 0
-127 38 -43 0
127 -38 44 0
127 38 43 0
-128 -127 -61 0
-128 127 61 0
128 -127 61 0
128 127 -61 0
-129 -115 0
-129 -117 0
129 115 117 0
-130 113 0
-130 129 0
130 -113 -129 0
-131 122 0
-131 -128 0
131 -122 128 0
-132 -124 0
-132 131 0
132 124 -131 0
-133 -121 0
-133 132 0
133 121 -132 0
-134 -126 0
-134 133 0
134 126 -133 0
-135 54 0
-135 -93 0
135 -54 93 0
-136 55 0
-136 -91 0
136 -55 91 0
-137 51 0
-137 -89 0
137 -51 89 0
-138 52 0
-138 -107 0
138 -52 107 0
-139 48 0
-139 -105 0
139 -48 105 0
-140 -108 0
-140 139 0
140 108 -139 0
-141 49 0
-141 -103 0
141 -49 103 0
-142 -106 0
-142 -108 0
142 106 108 0
-143 141 0
-143 142 0
143 -141 -142 0
-144 50 0
-144 -101 0
144 -50 101 0
-145 -104 0
-145 -108 0
145 104 108 0
-146 144 0
-146 145 0
146 -144 -145 0
-147 -106 0
-147 146 0
147 106 -146 0
-148 47 0
-148 -99 0
148 -47 99 0
-149 -102 0
-149 -104 0
149 102 104 0
-150 -108 0
-150 149 0
150 108 -149 0
-151 148 0
-151 150 0
151 -148 -150 0
-152 -106 0
-152 151 0
152 106 -151 0
-153 -138 0
-153 -140 0
153 138 140 0
-154 -143 0
-154 153 0
154 143 -153 0
-155 -147 0
-155 154 0
155 147 -154 0
-156 -152 0
-156 155 0
156 152 -155 0
-157 56 0
-157 -116 0
157 -56 116 0
-158 57 0
-158 -114 0
158 -57 114 0
-159 58 0
-159 -125 0
159 -58 125 0
-160 59 0
-160 -120 0
160 -59 120 0
-161 -126 0
-161 160 0
161 126 -160 0
-162 60 0
-162 -123 0
162 -60 123 0
-163 -121 0
-163 -126 0
163 121 126 0
-164 162 0
-164 163 0
164 -162 -163 0
-165 61 0
-165 -127 0
165 -61 127 0
-166 -124 0
-166 -126 0
166 124 126 0
-167 165 0
-167 166 0
167 -165 -166 0
-168 -121 0
-168 167 0
168 121 -167 0
-169 -124 0
-169 -128 0
169 124 128 0
-170 -126 0
-170 169 0
170 126 -169 0
-171 -122 0
-171 170 0
171 122 -170 0
-172 -121 0
-172 171 0
172 121 -171 0
-173 -159 0
-173 -161 0
173 159 161 0
-174 -164 0
-174 173 0
174 164 -173 0
-175 -168 0
-175 174 0
175 168 -174 0
-176 -172 0
-176 175 0
176 172 -175 0
-177 113 0
-177 157 0
177 -113 -157 0
-178 -117 0
-178 158 0
178 117 -158 0
-179 113 0
-179 178 0
179 -113 -178 0
-180 113 0
-180 -177 0
180 -113 177 0
-181 -179 0
-181 180 0
181 179 -180 0
-182 -130 0
-182 181 0
182 130 -181 0
-183 -121 0
-183 162 0
183 121 -162 0
-184 -124 0
-184 165 0
184 124 -165 0
-185 -121 0
-185 184 0
185 121 -184 0
-186 -122 0
-186 169 0
186 122 -169 0
-187 -121 0
-187 186 0
187 121 -186 0
-188 -160 0
-188 -183 0
188 160 183 0
-189 -185 0
-189 188 0
189 185 -188 0
-190 -187 0
-190 189 0
190 187 -189 0
-191 -162 0
-191 -184 0
191 162 184 0
-192 -186 0
-192 191 0
192 186 -191 0
-193 -122 0
-193 -128 0
193 122 128 0
-194 -165 0
-194 -193 0
194 165 193 0
-195 -106 0
-195 141 0
195 106 -141 0
-196 -104 0
-196 144 0
196 104 -144 0
-197 -106 0
-197 196 0
197 106 -196 0
-198 148 0
-198 149 0
198 -148 -149 0
-199 -106 0
-199 198 0
199 106 -198 0
-200 -139 0
-200 -195 0
200 139 195 0
-201 -197 0
-201 200 0
201 197 -200 0
-202 -199 0
-202 201 0
202 199 -201 0
-203 -141 0
-203 -196 0
203 141 196 0
-204 -198 0
-204 203 0
204 198 -203 0
-205 -102 0
-205 148 0
205 102 -148 0
-206 -144 0
-206 -205 0
206 144 205 0
-207 -51 0
-207 89 0
207 51 -89 0
-208 -92 0
-208 137 0
208 92 -137 0
-209 -136 0
-209 -208 0
209 136 208 0
-210 -97 0
-210 209 0
210 97 -209 0
-211 -94 0
-211 136 0
211 94 -136 0
-212 -94 0
-212 208 0
212 94 -208 0
-213 -135 0
-213 -211 0
213 135 211 0
-214 -212 0
-214 213 0
214 212 -213 0
-215 -98 0
-215 214 0
215 98 -214 0
-216 -57 0
-216 114 0
216 57 -114 0
-217 -157 0
-217 -178 0
217 157 178 0
-218 -129 0
-218 217 0
218 129 -217 0
-219 79 -73 0
-219 -79 73 0
219 79 73 0
219 -79 -73 0
-220 -81 -80 0
-220 81 80 0
220 -81 80 0
220 81 -80 0
-221 -220 219 0
-221 220 -219 0
221 -220 -219 0
221 220 219 0
-222 17 0
-222 61 0
222 -17 -61 0
-223 18 0
-223 61 0
223 -18 -61 0
-224 43 -223 0
-224 -43 -222 0
224 43 223 0
224 -43 222 0
-225 43 -19 0
-225 -43 -16 0
225 43 19 0
225 -43 16 0
-226 -61 0
-226 225 0
226 61 -225 0
-227 224 0
-227 -226 0
227 -224 226 0
-228 17 0
-228 60 0
228 -17 -60 0
-229 18 0
-229 60 0
229 -18 -60 0
-230 41 -229 0
-230 -41 -228 0
230 41 229 0
230 -41 228 0
-231 41 -19 0
-231 -41 -16 0
231 41 19 0
231 -41 16 0
-232 -60 0
-232 231 0
232 60 -231 0
-233 230 0
-233 -232 0
233 -230 232 0
-234 233 -227 0
-234 -233 227 0
234 233 227 0
234 -233 -227 0
-235 59 16 0
-235 -59 -17 0
235 59 -16 0
235 -59 17 0
-236 17 0
-236 58 0
236 -17 -58 0
-237 18 0
-237 58 0
237 -18 -58 0
-238 36 -237 0
-238 -36 -236 0
238 36 237 0
238 -36 236 0
-239 36 -19 0
-239 -36 -16 0
239 36 19 0
239 -36 16 0
-240 -58 0
-240 239 0
240 58 -239 0
-241 238 0
-241 -240 0
241 -238 240 0
-242 241 -235 0
-242 -241 235 0
242 241 235 0
242 -241 -235 0
-243 -82 0
-243 234 0
243 82 -234 0
-244 82 0
-244 234 0
244 -82 -234 0
-245 242 -244 0
-245 -242 -243 0
245 242 244 0
245 -242 243 0
-246 82 0
-246 -234 0
246 -82 234 0
-247 -82 0
-247 -234 0
247 82 234 0
-248 242 -247 0
-248 -242 -246 0
248 242 247 0
248 -242 246 0
-249 245 0
-249 248 0
249 -245 -248 0
-250 -249 221 0
-250 249 -221 0
-251 -192 -122 0
-251 192 122 0
251 -192 122 0
251 192 -122 0
-252 -251 -194 0
-252 251 194 0
252 -251 194 0
252 251 -194 0
-253 -252 -190 0
-253 252 190 0
253 -252 190 0
253 252 -190 0
-254 -253 -122 0
-254 253 122 0
254 -253 122 0
254 253 -122 0
-255 -254 128 0
-255 254 -128 0
255 -254 -128 0
255 254 128 0
-256 -255 126 0
-256 255 -126 0
256 -255 -126 0
256 255 126 0
-257 -256 124 0
-257 256 -124 0
257 -256 -124 0
257 256 124 0
-258 -257 121 0
-258 257 -121 0
258 -257 -121 0
258 257 121 0
-259 122 0
-259 -124 0
259 -122 124 0
-260 -121 0
-260 259 0
260 121 -259 0
-261 -128 0
-261 260 0
261 128 -260 0
-262 190 0
-262 -261 0
262 -190 261 0
-263 -131 0
-263 194 0
263 131 -194 0
-264 -128 0
-264 259 0
264 128 -259 0
-265 192 0
-265 -264 0
265 -192 264 0
-266 -265 263 0
-266 265 -263 0
266 -265 -263 0
266 265 263 0
-267 -266 262 0
-267 266 -262 0
267 -266 -262 0
267 266 262 0
-268 -267 -122 0
-268 267 122 0
268 -267 122 0
268 267 -122 0
-269 -268 128 0
-269 268 -128 0
269 -268 -128 0
269 268 128 0
-270 -269 126 0
-270 269 -126 0
270 -269 -126 0
270 269 126 0
-271 -270 124 0
-271 270 -124 0
271 -270 -124 0
271 270 124 0
-272 -271 121 0
-272 271 -121 0
272 -271 -121 0
272 271 121 0
-273 -65 272 0
-273 65 -258 0
273 -65 -272 0
273 65 258 0
-274 -217 158 0
-274 217 -158 0
274 -217 -158 0
274 217 158 0
-275 -274 -181 0
-275 274 181 0
275 -274 181 0
275 274 -181 0
-276 -275 115 0
-276 275 -115 0
276 -275 -115 0
276 275 115 0
-277 -276 117 0
-277 276 -117 0
277 -276 -117 0
277 276 117 0
-278 -277 -118 0
-278 277 118 0
278 -277 118 0
278 277 -118 0
-279 -278 -113 0
-279 278 113 0
279 -278 113 0
279 278 -113 0
-280 176 0
-280 -279 0
280 -176 279 0
-281 -65 0
-281 280 0
281 65 -280 0
-282 218 216 0
-282 -218 -216 0
282 218 -216 0
282 -218 216 0
-283 -282 182 0
-283 282 -182 0
283 -282 -182 0
283 282 182 0
-284 -283 115 0
-284 283 -115 0
284 -283 -115 0
284 283 115 0
-285 -284 117 0
-285 284 -117 0
285 -284 -117 0
285 284 117 0
-286 -285 -118 0
-286 285 118 0
286 -285 118 0
286 285 -118 0
-287 -286 -113 0
-287 286 113 0
287 -286 113 0
287 286 -113 0
-288 -176 0
-288 -287 0
288 176 287 0
-289 -65 0
-289 288 0
289 65 -288 0
-290 -134 0
-290 176 0
290 134 -176 0
-291 -279 0
-291 290 0
291 279 -290 0
-292 65 0
-292 291 0
292 -65 -291 0
-293 -287 0
-293 -290 0
293 287 290 0
-294 65 0
-294 293 0
294 -65 -293 0
-295 -281 0
-295 -289 0
295 281 289 0
-296 -292 0
-296 295 0
296 292 -295 0
-297 -294 0
-297 296 0
297 294 -296 0
298 -297 -273 0
298 297 273 0
-299 17 0
-299 51 0
299 -17 -51 0
-300 18 0
-300 51 0
300 -18 -51 0
-301 12 -300 0
-301 -12 -299 0
301 12 300 0
301 -12 299 0
-302 12 -19 0
-302 -12 -16 0
302 12 19 0
302 -12 16 0
-303 -51 0
-303 302 0
303 51 -302 0
-304 301 0
-304 -303 0
304 -301 303 0
-305 17 0
-305 55 0
305 -17 -55 0
-306 18 0
-306 55 0
306 -18 -55 0
-307 10 -306 0
-307 -10 -305 0
307 10 306 0
307 -10 305 0
-308 10 -19 0
-308 -10 -16 0
308 10 19 0
308 -10 16 0
-309 -55 0
-309 308 0
309 55 -308 0
-310 307 0
-310 -309 0
310 -307 309 0
-311 310 -304 0
-311 -310 304 0
311 310 304 0
311 -310 -304 0
-312 17 0
-312 54 0
312 -17 -54 0
-313 18 0
-313 54 0
313 -18 -54 0
-314 8 -313 0
-314 -8 -312 0
314 8 313 0
314 -8 312 0
-315 8 -19 0
-315 -8 -16 0
315 8 19 0
315 -8 16 0
-316 -54 0
-316 315 0
316 54 -315 0
-317 314 0
-317 -316 0
317 -314 316 0
-318 -317 88 0
-318 317 -88 0
318 -317 -88 0
318 317 88 0
-319 -318 311 0
-319 318 -311 0
319 -318 -311 0
319 318 311 0
-320 17 0
-320 47 0
320 -17 -47 0
-321 18 0
-321 47 0
321 -18 -47 0
-322 26 -321 0
-322 -26 -320 0
322 26 321 0
322 -26 320 0
-323 26 -19 0
-323 -26 -16 0
323 26 19 0
323 -26 16 0
-324 -47 0
-324 323 0
324 47 -323 0
-325 322 0
-325 -324 0
325 -322 324 0
-326 17 0
-326 50 0
326 -17 -50 0
-327 18 0
-327 50 0
327 -18 -50 0
-328 24 -327 0
-328 -24 -326 0
328 24 327 0
328 -24 326 0
-329 24 -19 0
-329 -24 -16 0
329 24 19 0
329 -24 16 0
-330 -50 0
-330 329 0
330 50 -329 0
-331 328 0
-331 -330 0
331 -328 330 0
-332 17 0
-332 49 0
332 -17 -49 0
-333 18 0
-333 49 0
333 -18 -49 0
-334 22 -333 0
-334 -22 -332 0
334 22 333 0
334 -22 332 0
-335 22 -19 0
-335 -22 -16 0
335 22 19 0
335 -22 16 0
-336 -49 0
-336 335 0
336 49 -335 0
-337 334 0
-337 -336 0
337 -334 336 0
-338 337 -331 0
-338 -337 331 0
338 337 331 0
338 -337 -331 0
-339 17 0
-339 48 0
339 -17 -48 0
-340 18 0
-340 48 0
340 -18 -48 0
-341 20 -340 0
-341 -20 -339 0
341 20 340 0
341 -20 339 0
-342 20 -19 0
-342 -20 -16 0
342 20 19 0
342 -20 16 0
-343 -48 0
-343 342 0
343 48 -342 0
-344 341 0
-344 -343 0
344 -341 343 0
-345 17 0
-345 52 0
345 -17 -52 0
-346 18 0
-346 52 0
346 -18 -52 0
-347 14 -346 0
-347 -14 -345 0
347 14 346 0
347 -14 345 0
-348 14 -19 0
-348 -14 -16 0
348 14 19 0
348 -14 16 0
-349 -52 0
-349 348 0
349 52 -348 0
-350 347 0
-350 -349 0
350 -347 349 0
-351 350 -344 0
-351 -350 344 0
351 350 344 0
351 -350 -344 0
-352 -325 0
-352 338 0
352 325 -338 0
-353 325 0
-353 338 0
353 -325 -338 0
-354 351 -353 0
-354 -351 -352 0
354 351 353 0
354 -351 352 0
-355 325 0
-355 -338 0
355 -325 338 0
-356 -325 0
-356 -338 0
356 325 338 0
-357 351 -356 0
-357 -351 -355 0
357 351 356 0
357 -351 355 0
-358 354 0
-358 357 0
358 -354 -357 0
-359 -358 319 0
-359 358 -319 0
-360 -204 148 0
-360 204 -148 0
360 -204 -148 0
360 204 148 0
-361 -360 -206 0
-361 360 206 0
361 -360 206 0
361 360 -206 0
-362 -361 -202 0
-362 361 202 0
362 -361 202 0
362 361 -202 0
-363 -362 100 0
-363 362 -100 0
363 -362 -100 0
363 362 100 0
-364 -363 102 0
-364 363 -102 0
364 -363 -102 0
364 363 102 0
-365 -364 108 0
-365 364 -108 0
365 -364 -108 0
365 364 108 0
-366 -365 104 0
-366 365 -104 0
366 -365 -104 0
366 365 104 0
-367 -366 106 0
-367 366 -106 0
367 -366 -106 0
367 366 106 0
-368 -100 0
-368 -104 0
368 100 104 0
-369 -106 0
-369 368 0
369 106 -368 0
-370 -102 0
-370 369 0
370 102 -369 0
-371 202 0
-371 -370 0
371 -202 370 0
-372 -109 0
-372 206 0
372 109 -206 0
-373 -102 0
-373 368 0
373 102 -368 0
-374 204 0
-374 -373 0
374 -204 373 0
-375 -47 0
-375 99 0
375 47 -99 0
-376 375 374 0
-376 -375 -374 0
376 375 -374 0
376 -375 374 0
-377 -376 372 0
-377 376 -372 0
377 -376 -372 0
377 376 372 0
-378 -377 371 0
-378 377 -371 0
378 -377 -371 0
378 377 371 0
-379 -378 100 0
-379 378 -100 0
379 -378 -100 0
379 378 100 0
-380 -379 102 0
-380 379 -102 0
380 -379 -102 0
380 379 102 0
-381 -380 108 0
-381 380 -108 0
381 -380 -108 0
381 380 108 0
-382 -381 104 0
-382 381 -104 0
382 -381 -104 0
382 381 104 0
-383 -382 106 0
-383 382 -106 0
383 -382 -106 0
383 382 106 0
-384 -62 383 0
-384 62 -367 0
384 -62 -383 0
384 62 367 0
-385 -209 137 0
-385 209 -137 0
385 -209 -137 0
385 209 137 0
-386 -385 -214 0
-386 385 214 0
386 -385 214 0
386 385 -214 0
-387 -386 90 0
-387 386 -90 0
387 -386 -90 0
387 386 90 0
-388 -387 92 0
-388 387 -92 0
388 -387 -92 0
388 387 92 0
-389 -388 96 0
-389 388 -96 0
389 -388 -96 0
389 388 96 0
-390 -389 94 0
-390 389 -94 0
390 -389 -94 0
390 389 94 0
-391 156 0
-391 -390 0
391 -156 390 0
-392 -62 0
-392 391 0
392 62 -391 0
-393 210 207 0
-393 -210 -207 0
393 210 -207 0
393 -210 207 0
-394 -393 215 0
-394 393 -215 0
394 -393 -215 0
394 393 215 0
-395 -394 90 0
-395 394 -90 0
395 -394 -90 0
395 394 90 0
-396 -395 92 0
-396 395 -92 0
396 -395 -92 0
396 395 92 0
-397 -396 96 0
-397 396 -96 0
397 -396 -96 0
397 396 96 0
-398 -397 94 0
-398 397 -94 0
398 -397 -94 0
398 397 94 0
-399 -156 0
-399 -398 0
399 156 398 0
-400 -62 0
-400 399 0
400 62 -399 0
-401 -112 0
-401 156 0
401 112 -156 0
-402 -390 0
-402 401 0
402 390 -401 0
-403 62 0
-403 402 0
403 -62 -402 0
-404 -398 0
-404 -401 0
404 398 401 0
-405 62 0
-405 404 0
405 -62 -404 0
-406 -392 0
-406 -400 0
406 392 400 0
-407 -403 0
-407 406 0
407 403 -406 0
-408 -405 0
-408 407 0
408 405 -407 0
409 -408 -384 0
409 408 384 0
-410 -66 -298 0
-410 66 250 0
-411 -67 -1 0
-411 67 410 0
-412 -66 -409 0
-412 66 359 0
-413 -67 -2 0
-413 67 412 0
414 63 411 0
415 64 -414 0
416 -63 413 0
417 64 -416 0
418 -4 63 0
419 -64 -418 0
420 -5 -63 0
421 -64 -420 0
-422 -415 0
-422 -417 0
-423 -419 0
-423 422 0
-424 -421 0
-424 423 0
425 -3 424 0
-425 0
